10J3M/DAT/10J3MUNR-9.dat
10 3
32.0365 24.1324
14.3267 47.9026
41.5883 28.2982
35.1817 12.3273
17.8678 31.2998
38.6482 11.0513
22.2853 33.5774
34.4347 29.0857
29.3594 36.6681
45.4311 36.6098
290.9526