10J3M/SOL/10J3MUNR-9.sol
solution status: optimal solution found
objective value:                     44.3726666666667
x#1#1                               0.692036098981077 	(obj:0)
x#1#2                               0.307963901018923 	(obj:0)
x#2#1                                               1 	(obj:0)
x#3#1                                               1 	(obj:0)
x#4#1                                               1 	(obj:0)
x#5#1                                               1 	(obj:0)
x#6#2                               0.689260954738395 	(obj:0)
x#6#3                               0.310739045261606 	(obj:0)
x#7#1                                               1 	(obj:0)
x#8#3                                               1 	(obj:0)
x#9#2                                               1 	(obj:0)
x#10#1                                              1 	(obj:0)
z                                    44.3726666666667 	(obj:1)
